p tw 23 63
1 2
1 3
1 5
1 6
1 7
1 8
2 11
2 12
2 14
2 3
2 8
11 12
11 14
11 21
11 22
12 13
12 15
12 16
12 22
13 15
13 16
13 17
16 17
16 18
16 22
16 23
18 19
18 20
18 23
19 20
20 21
20 23
3 12
3 15
3 5
21 22
21 23
22 23
4 13
4 15
4 17
4 5
4 6
5 15
5 6
6 17
6 7
7 16
7 17
7 18
7 19
7 8
8 14
8 19
8 9
9 14
9 19
9 20
9 10
10 11
10 14
10 20
10 21
